NAME : portcgen-30-30
COMMENT : portcgen N=30, seed=30
TYPE : TSP
DIMENSION : 30
EDGE_WEIGHT_TYPE : EUC_2D
NODE_COORD_SECTION
1 217842 228081
2 -345457 -326886
3 83843 -294276
4 -54511 -404928
5 385391 332159
6 262695 -107515
7 -170529 126385
8 160859 29200
9 76571 -30123
10 -932 -305428
11 -11971 88148
12 -213613 529870
13 -65957 -126896
14 179136 138815
15 -36979 -206072
16 -292656 198145
17 -89729 -87493
18 -17960 222144
19 -90722 -21619
20 158791 -235944
21 -245636 48115
22 103448 2234
23 -292835 -6113
24 -51724 351457
25 214447 57434
26 119399 -151355
27 192433 -90987
28 145356 -65663
29 106095 -381696
30 -136550 -50130
